/* Objective function */
max: +x_1_1 +x_1_2 +x_1_3 +x_1_4 +x_1_5 +x_1_6 +x_1_7 +x_1_8 +x_1_9 +x_1_10 +x_1_11 +x_1_12 +x_1_13 +x_1_14
 +x_1_15 +x_2_1 +x_2_2 +x_2_3 +x_2_4 +x_2_5 +x_2_6 +x_2_7 +x_2_8 +x_2_9 +x_2_10 +x_2_11 +x_2_12 +x_2_13
 +x_2_14 +x_2_15 +x_3_1 +x_3_2 +x_3_3 +x_3_4 +x_3_5 +x_3_6 +x_3_7 +x_3_8 +x_3_9 +x_3_10 +x_3_11 +x_3_12
 +x_3_13 +x_3_14 +x_3_15 +x_4_1 +x_4_2 +x_4_3 +x_4_4 +x_4_5 +x_4_6 +x_4_7 +x_4_8 +x_4_9 +x_4_10 +x_4_11
 +x_4_12 +x_4_13 +x_4_14 +x_4_15 +x_5_1 +x_5_2 +x_5_3 +x_5_4 +x_5_5 +x_5_6 +x_5_7 +x_5_8 +x_5_9 +x_5_10
 +x_5_11 +x_5_12 +x_5_13 +x_5_14 +x_5_15 +x_6_1 +x_6_2 +x_6_3 +x_6_4 +x_6_5 +x_6_6 +x_6_7 +x_6_8 +x_6_9
 +x_6_10 +x_6_11 +x_6_12 +x_6_13 +x_6_14 +x_6_15 +x_7_1 +x_7_2 +x_7_3 +x_7_4 +x_7_5 +x_7_6 +x_7_7 +x_7_8
 +x_7_9 +x_7_10 +x_7_11 +x_7_12 +x_7_13 +x_7_14 +x_7_15 +x_8_1 +x_8_2 +x_8_3 +x_8_4 +x_8_5 +x_8_6 +x_8_7
 +x_8_8 +x_8_9 +x_8_10 +x_8_11 +x_8_12 +x_8_13 +x_8_14 +x_8_15 +x_9_1 +x_9_2 +x_9_3 +x_9_4 +x_9_5 +x_9_6
 +x_9_7 +x_9_8 +x_9_9 +x_9_10 +x_9_11 +x_9_12 +x_9_13 +x_9_14 +x_9_15 +x_10_1 +x_10_2 +x_10_3 +x_10_4
 +x_10_5 +x_10_6 +x_10_7 +x_10_8 +x_10_9 +x_10_10 +x_10_11 +x_10_12 +x_10_13 +x_10_14 +x_10_15 +x_11_1
 +x_11_2 +x_11_3 +x_11_4 +x_11_5 +x_11_6 +x_11_7 +x_11_8 +x_11_9 +x_11_10 +x_11_11 +x_11_12 +x_11_13
 +x_11_14 +x_11_15 +x_12_1 +x_12_2 +x_12_3 +x_12_4 +x_12_5 +x_12_6 +x_12_7 +x_12_8 +x_12_9 +x_12_10 +x_12_11
 +x_12_12 +x_12_13 +x_12_14 +x_12_15 +x_13_1 +x_13_2 +x_13_3 +x_13_4 +x_13_5 +x_13_6 +x_13_7 +x_13_8
 +x_13_9 +x_13_10 +x_13_11 +x_13_12 +x_13_13 +x_13_14 +x_13_15 +x_14_1 +x_14_2 +x_14_3 +x_14_4 +x_14_5
 +x_14_6 +x_14_7 +x_14_8 +x_14_9 +x_14_10 +x_14_11 +x_14_12 +x_14_13 +x_14_14 +x_14_15 +x_15_1 +x_15_2
 +x_15_3 +x_15_4 +x_15_5 +x_15_6 +x_15_7 +x_15_8 +x_15_9 +x_15_10 +x_15_11 +x_15_12 +x_15_13 +x_15_14
 +x_15_15;

/* Constraints */
-6 x_1_1 +x_2_3 +x_3_2 >= 0;
-4 x_1_1 +x_2_3 +x_3_2 <= 2;
-6 x_1_2 +x_2_4 +x_3_1 +x_3_3 >= 0;
-3 x_1_2 +x_2_4 +x_3_1 +x_3_3 <= 3;
-6 x_1_3 +x_2_1 +x_2_5 +x_3_2 +x_3_4 >= 0;
-2 x_1_3 +x_2_1 +x_2_5 +x_3_2 +x_3_4 <= 4;
-6 x_1_4 +x_2_2 +x_2_6 +x_3_3 +x_3_5 >= 0;
-2 x_1_4 +x_2_2 +x_2_6 +x_3_3 +x_3_5 <= 4;
-6 x_1_5 +x_2_3 +x_2_7 +x_3_4 +x_3_6 >= 0;
-2 x_1_5 +x_2_3 +x_2_7 +x_3_4 +x_3_6 <= 4;
-6 x_1_6 +x_2_4 +x_2_8 +x_3_5 +x_3_7 >= 0;
-2 x_1_6 +x_2_4 +x_2_8 +x_3_5 +x_3_7 <= 4;
-6 x_1_7 +x_2_5 +x_2_9 +x_3_6 +x_3_8 >= 0;
-2 x_1_7 +x_2_5 +x_2_9 +x_3_6 +x_3_8 <= 4;
-6 x_1_8 +x_2_6 +x_2_10 +x_3_7 +x_3_9 >= 0;
-2 x_1_8 +x_2_6 +x_2_10 +x_3_7 +x_3_9 <= 4;
-6 x_1_9 +x_2_7 +x_2_11 +x_3_8 +x_3_10 >= 0;
-2 x_1_9 +x_2_7 +x_2_11 +x_3_8 +x_3_10 <= 4;
-6 x_1_10 +x_2_8 +x_2_12 +x_3_9 +x_3_11 >= 0;
-2 x_1_10 +x_2_8 +x_2_12 +x_3_9 +x_3_11 <= 4;
-6 x_1_11 +x_2_9 +x_2_13 +x_3_10 +x_3_12 >= 0;
-2 x_1_11 +x_2_9 +x_2_13 +x_3_10 +x_3_12 <= 4;
-6 x_1_12 +x_2_10 +x_2_14 +x_3_11 +x_3_13 >= 0;
-2 x_1_12 +x_2_10 +x_2_14 +x_3_11 +x_3_13 <= 4;
-6 x_1_13 +x_2_11 +x_2_15 +x_3_12 +x_3_14 >= 0;
-2 x_1_13 +x_2_11 +x_2_15 +x_3_12 +x_3_14 <= 4;
-6 x_1_14 +x_2_12 +x_3_13 +x_3_15 >= 0;
-3 x_1_14 +x_2_12 +x_3_13 +x_3_15 <= 3;
-6 x_1_15 +x_2_13 +x_3_14 >= 0;
-4 x_1_15 +x_2_13 +x_3_14 <= 2;
+x_1_3 -6 x_2_1 +x_3_3 +x_4_2 >= 0;
+x_1_3 -3 x_2_1 +x_3_3 +x_4_2 <= 3;
+x_1_4 -6 x_2_2 +x_3_4 +x_4_1 +x_4_3 >= 0;
+x_1_4 -2 x_2_2 +x_3_4 +x_4_1 +x_4_3 <= 4;
+x_1_1 +x_1_5 -6 x_2_3 +x_3_1 +x_3_5 +x_4_2 +x_4_4 >= 0;
+x_1_1 +x_1_5 +x_3_1 +x_3_5 +x_4_2 +x_4_4 <= 6;
+x_1_2 +x_1_6 -6 x_2_4 +x_3_2 +x_3_6 +x_4_3 +x_4_5 >= 0;
+x_1_2 +x_1_6 +x_3_2 +x_3_6 +x_4_3 +x_4_5 <= 6;
+x_1_3 +x_1_7 -6 x_2_5 +x_3_3 +x_3_7 +x_4_4 +x_4_6 >= 0;
+x_1_3 +x_1_7 +x_3_3 +x_3_7 +x_4_4 +x_4_6 <= 6;
+x_1_4 +x_1_8 -6 x_2_6 +x_3_4 +x_3_8 +x_4_5 +x_4_7 >= 0;
+x_1_4 +x_1_8 +x_3_4 +x_3_8 +x_4_5 +x_4_7 <= 6;
+x_1_5 +x_1_9 -6 x_2_7 +x_3_5 +x_3_9 +x_4_6 +x_4_8 >= 0;
+x_1_5 +x_1_9 +x_3_5 +x_3_9 +x_4_6 +x_4_8 <= 6;
+x_1_6 +x_1_10 -6 x_2_8 +x_3_6 +x_3_10 +x_4_7 +x_4_9 >= 0;
+x_1_6 +x_1_10 +x_3_6 +x_3_10 +x_4_7 +x_4_9 <= 6;
+x_1_7 +x_1_11 -6 x_2_9 +x_3_7 +x_3_11 +x_4_8 +x_4_10 >= 0;
+x_1_7 +x_1_11 +x_3_7 +x_3_11 +x_4_8 +x_4_10 <= 6;
+x_1_8 +x_1_12 -6 x_2_10 +x_3_8 +x_3_12 +x_4_9 +x_4_11 >= 0;
+x_1_8 +x_1_12 +x_3_8 +x_3_12 +x_4_9 +x_4_11 <= 6;
+x_1_9 +x_1_13 -6 x_2_11 +x_3_9 +x_3_13 +x_4_10 +x_4_12 >= 0;
+x_1_9 +x_1_13 +x_3_9 +x_3_13 +x_4_10 +x_4_12 <= 6;
+x_1_10 +x_1_14 -6 x_2_12 +x_3_10 +x_3_14 +x_4_11 +x_4_13 >= 0;
+x_1_10 +x_1_14 +x_3_10 +x_3_14 +x_4_11 +x_4_13 <= 6;
+x_1_11 +x_1_15 -6 x_2_13 +x_3_11 +x_3_15 +x_4_12 +x_4_14 >= 0;
+x_1_11 +x_1_15 +x_3_11 +x_3_15 +x_4_12 +x_4_14 <= 6;
+x_1_12 -6 x_2_14 +x_3_12 +x_4_13 +x_4_15 >= 0;
+x_1_12 -2 x_2_14 +x_3_12 +x_4_13 +x_4_15 <= 4;
+x_1_13 -6 x_2_15 +x_3_13 +x_4_14 >= 0;
+x_1_13 -3 x_2_15 +x_3_13 +x_4_14 <= 3;
+x_1_2 +x_2_3 -6 x_3_1 +x_4_3 +x_5_2 >= 0;
+x_1_2 +x_2_3 -2 x_3_1 +x_4_3 +x_5_2 <= 4;
+x_1_1 +x_1_3 +x_2_4 -6 x_3_2 +x_4_4 +x_5_1 +x_5_3 >= 0;
+x_1_1 +x_1_3 +x_2_4 +x_4_4 +x_5_1 +x_5_3 <= 6;
+x_1_2 +x_1_4 +x_2_1 +x_2_5 -6 x_3_3 +x_4_1 +x_4_5 +x_5_2 +x_5_4 >= 0;
+x_1_2 +x_1_4 +x_2_1 +x_2_5 +2 x_3_3 +x_4_1 +x_4_5 +x_5_2 +x_5_4 <= 8;
+x_1_3 +x_1_5 +x_2_2 +x_2_6 -6 x_3_4 +x_4_2 +x_4_6 +x_5_3 +x_5_5 >= 0;
+x_1_3 +x_1_5 +x_2_2 +x_2_6 +2 x_3_4 +x_4_2 +x_4_6 +x_5_3 +x_5_5 <= 8;
+x_1_4 +x_1_6 +x_2_3 +x_2_7 -6 x_3_5 +x_4_3 +x_4_7 +x_5_4 +x_5_6 >= 0;
+x_1_4 +x_1_6 +x_2_3 +x_2_7 +2 x_3_5 +x_4_3 +x_4_7 +x_5_4 +x_5_6 <= 8;
+x_1_5 +x_1_7 +x_2_4 +x_2_8 -6 x_3_6 +x_4_4 +x_4_8 +x_5_5 +x_5_7 >= 0;
+x_1_5 +x_1_7 +x_2_4 +x_2_8 +2 x_3_6 +x_4_4 +x_4_8 +x_5_5 +x_5_7 <= 8;
+x_1_6 +x_1_8 +x_2_5 +x_2_9 -6 x_3_7 +x_4_5 +x_4_9 +x_5_6 +x_5_8 >= 0;
+x_1_6 +x_1_8 +x_2_5 +x_2_9 +2 x_3_7 +x_4_5 +x_4_9 +x_5_6 +x_5_8 <= 8;
+x_1_7 +x_1_9 +x_2_6 +x_2_10 -6 x_3_8 +x_4_6 +x_4_10 +x_5_7 +x_5_9 >= 0;
+x_1_7 +x_1_9 +x_2_6 +x_2_10 +2 x_3_8 +x_4_6 +x_4_10 +x_5_7 +x_5_9 <= 8;
+x_1_8 +x_1_10 +x_2_7 +x_2_11 -6 x_3_9 +x_4_7 +x_4_11 +x_5_8 +x_5_10 >= 0;
+x_1_8 +x_1_10 +x_2_7 +x_2_11 +2 x_3_9 +x_4_7 +x_4_11 +x_5_8 +x_5_10 <= 8;
+x_1_9 +x_1_11 +x_2_8 +x_2_12 -6 x_3_10 +x_4_8 +x_4_12 +x_5_9 +x_5_11 >= 0;
+x_1_9 +x_1_11 +x_2_8 +x_2_12 +2 x_3_10 +x_4_8 +x_4_12 +x_5_9 +x_5_11 <= 8;
+x_1_10 +x_1_12 +x_2_9 +x_2_13 -6 x_3_11 +x_4_9 +x_4_13 +x_5_10 +x_5_12 >= 0;
+x_1_10 +x_1_12 +x_2_9 +x_2_13 +2 x_3_11 +x_4_9 +x_4_13 +x_5_10 +x_5_12 <= 8;
+x_1_11 +x_1_13 +x_2_10 +x_2_14 -6 x_3_12 +x_4_10 +x_4_14 +x_5_11 +x_5_13 >= 0;
+x_1_11 +x_1_13 +x_2_10 +x_2_14 +2 x_3_12 +x_4_10 +x_4_14 +x_5_11 +x_5_13 <= 8;
+x_1_12 +x_1_14 +x_2_11 +x_2_15 -6 x_3_13 +x_4_11 +x_4_15 +x_5_12 +x_5_14 >= 0;
+x_1_12 +x_1_14 +x_2_11 +x_2_15 +2 x_3_13 +x_4_11 +x_4_15 +x_5_12 +x_5_14 <= 8;
+x_1_13 +x_1_15 +x_2_12 -6 x_3_14 +x_4_12 +x_5_13 +x_5_15 >= 0;
+x_1_13 +x_1_15 +x_2_12 +x_4_12 +x_5_13 +x_5_15 <= 6;
+x_1_14 +x_2_13 -6 x_3_15 +x_4_13 +x_5_14 >= 0;
+x_1_14 +x_2_13 -2 x_3_15 +x_4_13 +x_5_14 <= 4;
+x_2_2 +x_3_3 -6 x_4_1 +x_5_3 +x_6_2 >= 0;
+x_2_2 +x_3_3 -2 x_4_1 +x_5_3 +x_6_2 <= 4;
+x_2_1 +x_2_3 +x_3_4 -6 x_4_2 +x_5_4 +x_6_1 +x_6_3 >= 0;
+x_2_1 +x_2_3 +x_3_4 +x_5_4 +x_6_1 +x_6_3 <= 6;
+x_2_2 +x_2_4 +x_3_1 +x_3_5 -6 x_4_3 +x_5_1 +x_5_5 +x_6_2 +x_6_4 >= 0;
+x_2_2 +x_2_4 +x_3_1 +x_3_5 +2 x_4_3 +x_5_1 +x_5_5 +x_6_2 +x_6_4 <= 8;
+x_2_3 +x_2_5 +x_3_2 +x_3_6 -6 x_4_4 +x_5_2 +x_5_6 +x_6_3 +x_6_5 >= 0;
+x_2_3 +x_2_5 +x_3_2 +x_3_6 +2 x_4_4 +x_5_2 +x_5_6 +x_6_3 +x_6_5 <= 8;
+x_2_4 +x_2_6 +x_3_3 +x_3_7 -6 x_4_5 +x_5_3 +x_5_7 +x_6_4 +x_6_6 >= 0;
+x_2_4 +x_2_6 +x_3_3 +x_3_7 +2 x_4_5 +x_5_3 +x_5_7 +x_6_4 +x_6_6 <= 8;
+x_2_5 +x_2_7 +x_3_4 +x_3_8 -6 x_4_6 +x_5_4 +x_5_8 +x_6_5 +x_6_7 >= 0;
+x_2_5 +x_2_7 +x_3_4 +x_3_8 +2 x_4_6 +x_5_4 +x_5_8 +x_6_5 +x_6_7 <= 8;
+x_2_6 +x_2_8 +x_3_5 +x_3_9 -6 x_4_7 +x_5_5 +x_5_9 +x_6_6 +x_6_8 >= 0;
+x_2_6 +x_2_8 +x_3_5 +x_3_9 +2 x_4_7 +x_5_5 +x_5_9 +x_6_6 +x_6_8 <= 8;
+x_2_7 +x_2_9 +x_3_6 +x_3_10 -6 x_4_8 +x_5_6 +x_5_10 +x_6_7 +x_6_9 >= 0;
+x_2_7 +x_2_9 +x_3_6 +x_3_10 +2 x_4_8 +x_5_6 +x_5_10 +x_6_7 +x_6_9 <= 8;
+x_2_8 +x_2_10 +x_3_7 +x_3_11 -6 x_4_9 +x_5_7 +x_5_11 +x_6_8 +x_6_10 >= 0;
+x_2_8 +x_2_10 +x_3_7 +x_3_11 +2 x_4_9 +x_5_7 +x_5_11 +x_6_8 +x_6_10 <= 8;
+x_2_9 +x_2_11 +x_3_8 +x_3_12 -6 x_4_10 +x_5_8 +x_5_12 +x_6_9 +x_6_11 >= 0;
+x_2_9 +x_2_11 +x_3_8 +x_3_12 +2 x_4_10 +x_5_8 +x_5_12 +x_6_9 +x_6_11 <= 8;
+x_2_10 +x_2_12 +x_3_9 +x_3_13 -6 x_4_11 +x_5_9 +x_5_13 +x_6_10 +x_6_12 >= 0;
+x_2_10 +x_2_12 +x_3_9 +x_3_13 +2 x_4_11 +x_5_9 +x_5_13 +x_6_10 +x_6_12 <= 8;
+x_2_11 +x_2_13 +x_3_10 +x_3_14 -6 x_4_12 +x_5_10 +x_5_14 +x_6_11 +x_6_13 >= 0;
+x_2_11 +x_2_13 +x_3_10 +x_3_14 +2 x_4_12 +x_5_10 +x_5_14 +x_6_11 +x_6_13 <= 8;
+x_2_12 +x_2_14 +x_3_11 +x_3_15 -6 x_4_13 +x_5_11 +x_5_15 +x_6_12 +x_6_14 >= 0;
+x_2_12 +x_2_14 +x_3_11 +x_3_15 +2 x_4_13 +x_5_11 +x_5_15 +x_6_12 +x_6_14 <= 8;
+x_2_13 +x_2_15 +x_3_12 -6 x_4_14 +x_5_12 +x_6_13 +x_6_15 >= 0;
+x_2_13 +x_2_15 +x_3_12 +x_5_12 +x_6_13 +x_6_15 <= 6;
+x_2_14 +x_3_13 -6 x_4_15 +x_5_13 +x_6_14 >= 0;
+x_2_14 +x_3_13 -2 x_4_15 +x_5_13 +x_6_14 <= 4;
+x_3_2 +x_4_3 -6 x_5_1 +x_6_3 +x_7_2 >= 0;
+x_3_2 +x_4_3 -2 x_5_1 +x_6_3 +x_7_2 <= 4;
+x_3_1 +x_3_3 +x_4_4 -6 x_5_2 +x_6_4 +x_7_1 +x_7_3 >= 0;
+x_3_1 +x_3_3 +x_4_4 +x_6_4 +x_7_1 +x_7_3 <= 6;
+x_3_2 +x_3_4 +x_4_1 +x_4_5 -6 x_5_3 +x_6_1 +x_6_5 +x_7_2 +x_7_4 >= 0;
+x_3_2 +x_3_4 +x_4_1 +x_4_5 +2 x_5_3 +x_6_1 +x_6_5 +x_7_2 +x_7_4 <= 8;
+x_3_3 +x_3_5 +x_4_2 +x_4_6 -6 x_5_4 +x_6_2 +x_6_6 +x_7_3 +x_7_5 >= 0;
+x_3_3 +x_3_5 +x_4_2 +x_4_6 +2 x_5_4 +x_6_2 +x_6_6 +x_7_3 +x_7_5 <= 8;
+x_3_4 +x_3_6 +x_4_3 +x_4_7 -6 x_5_5 +x_6_3 +x_6_7 +x_7_4 +x_7_6 >= 0;
+x_3_4 +x_3_6 +x_4_3 +x_4_7 +2 x_5_5 +x_6_3 +x_6_7 +x_7_4 +x_7_6 <= 8;
+x_3_5 +x_3_7 +x_4_4 +x_4_8 -6 x_5_6 +x_6_4 +x_6_8 +x_7_5 +x_7_7 >= 0;
+x_3_5 +x_3_7 +x_4_4 +x_4_8 +2 x_5_6 +x_6_4 +x_6_8 +x_7_5 +x_7_7 <= 8;
+x_3_6 +x_3_8 +x_4_5 +x_4_9 -6 x_5_7 +x_6_5 +x_6_9 +x_7_6 +x_7_8 >= 0;
+x_3_6 +x_3_8 +x_4_5 +x_4_9 +2 x_5_7 +x_6_5 +x_6_9 +x_7_6 +x_7_8 <= 8;
+x_3_7 +x_3_9 +x_4_6 +x_4_10 -6 x_5_8 +x_6_6 +x_6_10 +x_7_7 +x_7_9 >= 0;
+x_3_7 +x_3_9 +x_4_6 +x_4_10 +2 x_5_8 +x_6_6 +x_6_10 +x_7_7 +x_7_9 <= 8;
+x_3_8 +x_3_10 +x_4_7 +x_4_11 -6 x_5_9 +x_6_7 +x_6_11 +x_7_8 +x_7_10 >= 0;
+x_3_8 +x_3_10 +x_4_7 +x_4_11 +2 x_5_9 +x_6_7 +x_6_11 +x_7_8 +x_7_10 <= 8;
+x_3_9 +x_3_11 +x_4_8 +x_4_12 -6 x_5_10 +x_6_8 +x_6_12 +x_7_9 +x_7_11 >= 0;
+x_3_9 +x_3_11 +x_4_8 +x_4_12 +2 x_5_10 +x_6_8 +x_6_12 +x_7_9 +x_7_11 <= 8;
+x_3_10 +x_3_12 +x_4_9 +x_4_13 -6 x_5_11 +x_6_9 +x_6_13 +x_7_10 +x_7_12 >= 0;
+x_3_10 +x_3_12 +x_4_9 +x_4_13 +2 x_5_11 +x_6_9 +x_6_13 +x_7_10 +x_7_12 <= 8;
+x_3_11 +x_3_13 +x_4_10 +x_4_14 -6 x_5_12 +x_6_10 +x_6_14 +x_7_11 +x_7_13 >= 0;
+x_3_11 +x_3_13 +x_4_10 +x_4_14 +2 x_5_12 +x_6_10 +x_6_14 +x_7_11 +x_7_13 <= 8;
+x_3_12 +x_3_14 +x_4_11 +x_4_15 -6 x_5_13 +x_6_11 +x_6_15 +x_7_12 +x_7_14 >= 0;
+x_3_12 +x_3_14 +x_4_11 +x_4_15 +2 x_5_13 +x_6_11 +x_6_15 +x_7_12 +x_7_14 <= 8;
+x_3_13 +x_3_15 +x_4_12 -6 x_5_14 +x_6_12 +x_7_13 +x_7_15 >= 0;
+x_3_13 +x_3_15 +x_4_12 +x_6_12 +x_7_13 +x_7_15 <= 6;
+x_3_14 +x_4_13 -6 x_5_15 +x_6_13 +x_7_14 >= 0;
+x_3_14 +x_4_13 -2 x_5_15 +x_6_13 +x_7_14 <= 4;
+x_4_2 +x_5_3 -6 x_6_1 +x_7_3 +x_8_2 >= 0;
+x_4_2 +x_5_3 -2 x_6_1 +x_7_3 +x_8_2 <= 4;
+x_4_1 +x_4_3 +x_5_4 -6 x_6_2 +x_7_4 +x_8_1 +x_8_3 >= 0;
+x_4_1 +x_4_3 +x_5_4 +x_7_4 +x_8_1 +x_8_3 <= 6;
+x_4_2 +x_4_4 +x_5_1 +x_5_5 -6 x_6_3 +x_7_1 +x_7_5 +x_8_2 +x_8_4 >= 0;
+x_4_2 +x_4_4 +x_5_1 +x_5_5 +2 x_6_3 +x_7_1 +x_7_5 +x_8_2 +x_8_4 <= 8;
+x_4_3 +x_4_5 +x_5_2 +x_5_6 -6 x_6_4 +x_7_2 +x_7_6 +x_8_3 +x_8_5 >= 0;
+x_4_3 +x_4_5 +x_5_2 +x_5_6 +2 x_6_4 +x_7_2 +x_7_6 +x_8_3 +x_8_5 <= 8;
+x_4_4 +x_4_6 +x_5_3 +x_5_7 -6 x_6_5 +x_7_3 +x_7_7 +x_8_4 +x_8_6 >= 0;
+x_4_4 +x_4_6 +x_5_3 +x_5_7 +2 x_6_5 +x_7_3 +x_7_7 +x_8_4 +x_8_6 <= 8;
+x_4_5 +x_4_7 +x_5_4 +x_5_8 -6 x_6_6 +x_7_4 +x_7_8 +x_8_5 +x_8_7 >= 0;
+x_4_5 +x_4_7 +x_5_4 +x_5_8 +2 x_6_6 +x_7_4 +x_7_8 +x_8_5 +x_8_7 <= 8;
+x_4_6 +x_4_8 +x_5_5 +x_5_9 -6 x_6_7 +x_7_5 +x_7_9 +x_8_6 +x_8_8 >= 0;
+x_4_6 +x_4_8 +x_5_5 +x_5_9 +2 x_6_7 +x_7_5 +x_7_9 +x_8_6 +x_8_8 <= 8;
+x_4_7 +x_4_9 +x_5_6 +x_5_10 -6 x_6_8 +x_7_6 +x_7_10 +x_8_7 +x_8_9 >= 0;
+x_4_7 +x_4_9 +x_5_6 +x_5_10 +2 x_6_8 +x_7_6 +x_7_10 +x_8_7 +x_8_9 <= 8;
+x_4_8 +x_4_10 +x_5_7 +x_5_11 -6 x_6_9 +x_7_7 +x_7_11 +x_8_8 +x_8_10 >= 0;
+x_4_8 +x_4_10 +x_5_7 +x_5_11 +2 x_6_9 +x_7_7 +x_7_11 +x_8_8 +x_8_10 <= 8;
+x_4_9 +x_4_11 +x_5_8 +x_5_12 -6 x_6_10 +x_7_8 +x_7_12 +x_8_9 +x_8_11 >= 0;
+x_4_9 +x_4_11 +x_5_8 +x_5_12 +2 x_6_10 +x_7_8 +x_7_12 +x_8_9 +x_8_11 <= 8;
+x_4_10 +x_4_12 +x_5_9 +x_5_13 -6 x_6_11 +x_7_9 +x_7_13 +x_8_10 +x_8_12 >= 0;
+x_4_10 +x_4_12 +x_5_9 +x_5_13 +2 x_6_11 +x_7_9 +x_7_13 +x_8_10 +x_8_12 <= 8;
+x_4_11 +x_4_13 +x_5_10 +x_5_14 -6 x_6_12 +x_7_10 +x_7_14 +x_8_11 +x_8_13 >= 0;
+x_4_11 +x_4_13 +x_5_10 +x_5_14 +2 x_6_12 +x_7_10 +x_7_14 +x_8_11 +x_8_13 <= 8;
+x_4_12 +x_4_14 +x_5_11 +x_5_15 -6 x_6_13 +x_7_11 +x_7_15 +x_8_12 +x_8_14 >= 0;
+x_4_12 +x_4_14 +x_5_11 +x_5_15 +2 x_6_13 +x_7_11 +x_7_15 +x_8_12 +x_8_14 <= 8;
+x_4_13 +x_4_15 +x_5_12 -6 x_6_14 +x_7_12 +x_8_13 +x_8_15 >= 0;
+x_4_13 +x_4_15 +x_5_12 +x_7_12 +x_8_13 +x_8_15 <= 6;
+x_4_14 +x_5_13 -6 x_6_15 +x_7_13 +x_8_14 >= 0;
+x_4_14 +x_5_13 -2 x_6_15 +x_7_13 +x_8_14 <= 4;
+x_5_2 +x_6_3 -6 x_7_1 +x_8_3 +x_9_2 >= 0;
+x_5_2 +x_6_3 -2 x_7_1 +x_8_3 +x_9_2 <= 4;
+x_5_1 +x_5_3 +x_6_4 -6 x_7_2 +x_8_4 +x_9_1 +x_9_3 >= 0;
+x_5_1 +x_5_3 +x_6_4 +x_8_4 +x_9_1 +x_9_3 <= 6;
+x_5_2 +x_5_4 +x_6_1 +x_6_5 -6 x_7_3 +x_8_1 +x_8_5 +x_9_2 +x_9_4 >= 0;
+x_5_2 +x_5_4 +x_6_1 +x_6_5 +2 x_7_3 +x_8_1 +x_8_5 +x_9_2 +x_9_4 <= 8;
+x_5_3 +x_5_5 +x_6_2 +x_6_6 -6 x_7_4 +x_8_2 +x_8_6 +x_9_3 +x_9_5 >= 0;
+x_5_3 +x_5_5 +x_6_2 +x_6_6 +2 x_7_4 +x_8_2 +x_8_6 +x_9_3 +x_9_5 <= 8;
+x_5_4 +x_5_6 +x_6_3 +x_6_7 -6 x_7_5 +x_8_3 +x_8_7 +x_9_4 +x_9_6 >= 0;
+x_5_4 +x_5_6 +x_6_3 +x_6_7 +2 x_7_5 +x_8_3 +x_8_7 +x_9_4 +x_9_6 <= 8;
+x_5_5 +x_5_7 +x_6_4 +x_6_8 -6 x_7_6 +x_8_4 +x_8_8 +x_9_5 +x_9_7 >= 0;
+x_5_5 +x_5_7 +x_6_4 +x_6_8 +2 x_7_6 +x_8_4 +x_8_8 +x_9_5 +x_9_7 <= 8;
+x_5_6 +x_5_8 +x_6_5 +x_6_9 -6 x_7_7 +x_8_5 +x_8_9 +x_9_6 +x_9_8 >= 0;
+x_5_6 +x_5_8 +x_6_5 +x_6_9 +2 x_7_7 +x_8_5 +x_8_9 +x_9_6 +x_9_8 <= 8;
+x_5_7 +x_5_9 +x_6_6 +x_6_10 -6 x_7_8 +x_8_6 +x_8_10 +x_9_7 +x_9_9 >= 0;
+x_5_7 +x_5_9 +x_6_6 +x_6_10 +2 x_7_8 +x_8_6 +x_8_10 +x_9_7 +x_9_9 <= 8;
+x_5_8 +x_5_10 +x_6_7 +x_6_11 -6 x_7_9 +x_8_7 +x_8_11 +x_9_8 +x_9_10 >= 0;
+x_5_8 +x_5_10 +x_6_7 +x_6_11 +2 x_7_9 +x_8_7 +x_8_11 +x_9_8 +x_9_10 <= 8;
+x_5_9 +x_5_11 +x_6_8 +x_6_12 -6 x_7_10 +x_8_8 +x_8_12 +x_9_9 +x_9_11 >= 0;
+x_5_9 +x_5_11 +x_6_8 +x_6_12 +2 x_7_10 +x_8_8 +x_8_12 +x_9_9 +x_9_11 <= 8;
+x_5_10 +x_5_12 +x_6_9 +x_6_13 -6 x_7_11 +x_8_9 +x_8_13 +x_9_10 +x_9_12 >= 0;
+x_5_10 +x_5_12 +x_6_9 +x_6_13 +2 x_7_11 +x_8_9 +x_8_13 +x_9_10 +x_9_12 <= 8;
+x_5_11 +x_5_13 +x_6_10 +x_6_14 -6 x_7_12 +x_8_10 +x_8_14 +x_9_11 +x_9_13 >= 0;
+x_5_11 +x_5_13 +x_6_10 +x_6_14 +2 x_7_12 +x_8_10 +x_8_14 +x_9_11 +x_9_13 <= 8;
+x_5_12 +x_5_14 +x_6_11 +x_6_15 -6 x_7_13 +x_8_11 +x_8_15 +x_9_12 +x_9_14 >= 0;
+x_5_12 +x_5_14 +x_6_11 +x_6_15 +2 x_7_13 +x_8_11 +x_8_15 +x_9_12 +x_9_14 <= 8;
+x_5_13 +x_5_15 +x_6_12 -6 x_7_14 +x_8_12 +x_9_13 +x_9_15 >= 0;
+x_5_13 +x_5_15 +x_6_12 +x_8_12 +x_9_13 +x_9_15 <= 6;
+x_5_14 +x_6_13 -6 x_7_15 +x_8_13 +x_9_14 >= 0;
+x_5_14 +x_6_13 -2 x_7_15 +x_8_13 +x_9_14 <= 4;
+x_6_2 +x_7_3 -6 x_8_1 +x_9_3 +x_10_2 >= 0;
+x_6_2 +x_7_3 -2 x_8_1 +x_9_3 +x_10_2 <= 4;
+x_6_1 +x_6_3 +x_7_4 -6 x_8_2 +x_9_4 +x_10_1 +x_10_3 >= 0;
+x_6_1 +x_6_3 +x_7_4 +x_9_4 +x_10_1 +x_10_3 <= 6;
+x_6_2 +x_6_4 +x_7_1 +x_7_5 -6 x_8_3 +x_9_1 +x_9_5 +x_10_2 +x_10_4 >= 0;
+x_6_2 +x_6_4 +x_7_1 +x_7_5 +2 x_8_3 +x_9_1 +x_9_5 +x_10_2 +x_10_4 <= 8;
+x_6_3 +x_6_5 +x_7_2 +x_7_6 -6 x_8_4 +x_9_2 +x_9_6 +x_10_3 +x_10_5 >= 0;
+x_6_3 +x_6_5 +x_7_2 +x_7_6 +2 x_8_4 +x_9_2 +x_9_6 +x_10_3 +x_10_5 <= 8;
+x_6_4 +x_6_6 +x_7_3 +x_7_7 -6 x_8_5 +x_9_3 +x_9_7 +x_10_4 +x_10_6 >= 0;
+x_6_4 +x_6_6 +x_7_3 +x_7_7 +2 x_8_5 +x_9_3 +x_9_7 +x_10_4 +x_10_6 <= 8;
+x_6_5 +x_6_7 +x_7_4 +x_7_8 -6 x_8_6 +x_9_4 +x_9_8 +x_10_5 +x_10_7 >= 0;
+x_6_5 +x_6_7 +x_7_4 +x_7_8 +2 x_8_6 +x_9_4 +x_9_8 +x_10_5 +x_10_7 <= 8;
+x_6_6 +x_6_8 +x_7_5 +x_7_9 -6 x_8_7 +x_9_5 +x_9_9 +x_10_6 +x_10_8 >= 0;
+x_6_6 +x_6_8 +x_7_5 +x_7_9 +2 x_8_7 +x_9_5 +x_9_9 +x_10_6 +x_10_8 <= 8;
+x_6_7 +x_6_9 +x_7_6 +x_7_10 -6 x_8_8 +x_9_6 +x_9_10 +x_10_7 +x_10_9 >= 0;
+x_6_7 +x_6_9 +x_7_6 +x_7_10 +2 x_8_8 +x_9_6 +x_9_10 +x_10_7 +x_10_9 <= 8;
+x_6_8 +x_6_10 +x_7_7 +x_7_11 -6 x_8_9 +x_9_7 +x_9_11 +x_10_8 +x_10_10 >= 0;
+x_6_8 +x_6_10 +x_7_7 +x_7_11 +2 x_8_9 +x_9_7 +x_9_11 +x_10_8 +x_10_10 <= 8;
+x_6_9 +x_6_11 +x_7_8 +x_7_12 -6 x_8_10 +x_9_8 +x_9_12 +x_10_9 +x_10_11 >= 0;
+x_6_9 +x_6_11 +x_7_8 +x_7_12 +2 x_8_10 +x_9_8 +x_9_12 +x_10_9 +x_10_11 <= 8;
+x_6_10 +x_6_12 +x_7_9 +x_7_13 -6 x_8_11 +x_9_9 +x_9_13 +x_10_10 +x_10_12 >= 0;
+x_6_10 +x_6_12 +x_7_9 +x_7_13 +2 x_8_11 +x_9_9 +x_9_13 +x_10_10 +x_10_12 <= 8;
+x_6_11 +x_6_13 +x_7_10 +x_7_14 -6 x_8_12 +x_9_10 +x_9_14 +x_10_11 +x_10_13 >= 0;
+x_6_11 +x_6_13 +x_7_10 +x_7_14 +2 x_8_12 +x_9_10 +x_9_14 +x_10_11 +x_10_13 <= 8;
+x_6_12 +x_6_14 +x_7_11 +x_7_15 -6 x_8_13 +x_9_11 +x_9_15 +x_10_12 +x_10_14 >= 0;
+x_6_12 +x_6_14 +x_7_11 +x_7_15 +2 x_8_13 +x_9_11 +x_9_15 +x_10_12 +x_10_14 <= 8;
+x_6_13 +x_6_15 +x_7_12 -6 x_8_14 +x_9_12 +x_10_13 +x_10_15 >= 0;
+x_6_13 +x_6_15 +x_7_12 +x_9_12 +x_10_13 +x_10_15 <= 6;
+x_6_14 +x_7_13 -6 x_8_15 +x_9_13 +x_10_14 >= 0;
+x_6_14 +x_7_13 -2 x_8_15 +x_9_13 +x_10_14 <= 4;
+x_7_2 +x_8_3 -6 x_9_1 +x_10_3 +x_11_2 >= 0;
+x_7_2 +x_8_3 -2 x_9_1 +x_10_3 +x_11_2 <= 4;
+x_7_1 +x_7_3 +x_8_4 -6 x_9_2 +x_10_4 +x_11_1 +x_11_3 >= 0;
+x_7_1 +x_7_3 +x_8_4 +x_10_4 +x_11_1 +x_11_3 <= 6;
+x_7_2 +x_7_4 +x_8_1 +x_8_5 -6 x_9_3 +x_10_1 +x_10_5 +x_11_2 +x_11_4 >= 0;
+x_7_2 +x_7_4 +x_8_1 +x_8_5 +2 x_9_3 +x_10_1 +x_10_5 +x_11_2 +x_11_4 <= 8;
+x_7_3 +x_7_5 +x_8_2 +x_8_6 -6 x_9_4 +x_10_2 +x_10_6 +x_11_3 +x_11_5 >= 0;
+x_7_3 +x_7_5 +x_8_2 +x_8_6 +2 x_9_4 +x_10_2 +x_10_6 +x_11_3 +x_11_5 <= 8;
+x_7_4 +x_7_6 +x_8_3 +x_8_7 -6 x_9_5 +x_10_3 +x_10_7 +x_11_4 +x_11_6 >= 0;
+x_7_4 +x_7_6 +x_8_3 +x_8_7 +2 x_9_5 +x_10_3 +x_10_7 +x_11_4 +x_11_6 <= 8;
+x_7_5 +x_7_7 +x_8_4 +x_8_8 -6 x_9_6 +x_10_4 +x_10_8 +x_11_5 +x_11_7 >= 0;
+x_7_5 +x_7_7 +x_8_4 +x_8_8 +2 x_9_6 +x_10_4 +x_10_8 +x_11_5 +x_11_7 <= 8;
+x_7_6 +x_7_8 +x_8_5 +x_8_9 -6 x_9_7 +x_10_5 +x_10_9 +x_11_6 +x_11_8 >= 0;
+x_7_6 +x_7_8 +x_8_5 +x_8_9 +2 x_9_7 +x_10_5 +x_10_9 +x_11_6 +x_11_8 <= 8;
+x_7_7 +x_7_9 +x_8_6 +x_8_10 -6 x_9_8 +x_10_6 +x_10_10 +x_11_7 +x_11_9 >= 0;
+x_7_7 +x_7_9 +x_8_6 +x_8_10 +2 x_9_8 +x_10_6 +x_10_10 +x_11_7 +x_11_9 <= 8;
+x_7_8 +x_7_10 +x_8_7 +x_8_11 -6 x_9_9 +x_10_7 +x_10_11 +x_11_8 +x_11_10 >= 0;
+x_7_8 +x_7_10 +x_8_7 +x_8_11 +2 x_9_9 +x_10_7 +x_10_11 +x_11_8 +x_11_10 <= 8;
+x_7_9 +x_7_11 +x_8_8 +x_8_12 -6 x_9_10 +x_10_8 +x_10_12 +x_11_9 +x_11_11 >= 0;
+x_7_9 +x_7_11 +x_8_8 +x_8_12 +2 x_9_10 +x_10_8 +x_10_12 +x_11_9 +x_11_11 <= 8;
+x_7_10 +x_7_12 +x_8_9 +x_8_13 -6 x_9_11 +x_10_9 +x_10_13 +x_11_10 +x_11_12 >= 0;
+x_7_10 +x_7_12 +x_8_9 +x_8_13 +2 x_9_11 +x_10_9 +x_10_13 +x_11_10 +x_11_12 <= 8;
+x_7_11 +x_7_13 +x_8_10 +x_8_14 -6 x_9_12 +x_10_10 +x_10_14 +x_11_11 +x_11_13 >= 0;
+x_7_11 +x_7_13 +x_8_10 +x_8_14 +2 x_9_12 +x_10_10 +x_10_14 +x_11_11 +x_11_13 <= 8;
+x_7_12 +x_7_14 +x_8_11 +x_8_15 -6 x_9_13 +x_10_11 +x_10_15 +x_11_12 +x_11_14 >= 0;
+x_7_12 +x_7_14 +x_8_11 +x_8_15 +2 x_9_13 +x_10_11 +x_10_15 +x_11_12 +x_11_14 <= 8;
+x_7_13 +x_7_15 +x_8_12 -6 x_9_14 +x_10_12 +x_11_13 +x_11_15 >= 0;
+x_7_13 +x_7_15 +x_8_12 +x_10_12 +x_11_13 +x_11_15 <= 6;
+x_7_14 +x_8_13 -6 x_9_15 +x_10_13 +x_11_14 >= 0;
+x_7_14 +x_8_13 -2 x_9_15 +x_10_13 +x_11_14 <= 4;
+x_8_2 +x_9_3 -6 x_10_1 +x_11_3 +x_12_2 >= 0;
+x_8_2 +x_9_3 -2 x_10_1 +x_11_3 +x_12_2 <= 4;
+x_8_1 +x_8_3 +x_9_4 -6 x_10_2 +x_11_4 +x_12_1 +x_12_3 >= 0;
+x_8_1 +x_8_3 +x_9_4 +x_11_4 +x_12_1 +x_12_3 <= 6;
+x_8_2 +x_8_4 +x_9_1 +x_9_5 -6 x_10_3 +x_11_1 +x_11_5 +x_12_2 +x_12_4 >= 0;
+x_8_2 +x_8_4 +x_9_1 +x_9_5 +2 x_10_3 +x_11_1 +x_11_5 +x_12_2 +x_12_4 <= 8;
+x_8_3 +x_8_5 +x_9_2 +x_9_6 -6 x_10_4 +x_11_2 +x_11_6 +x_12_3 +x_12_5 >= 0;
+x_8_3 +x_8_5 +x_9_2 +x_9_6 +2 x_10_4 +x_11_2 +x_11_6 +x_12_3 +x_12_5 <= 8;
+x_8_4 +x_8_6 +x_9_3 +x_9_7 -6 x_10_5 +x_11_3 +x_11_7 +x_12_4 +x_12_6 >= 0;
+x_8_4 +x_8_6 +x_9_3 +x_9_7 +2 x_10_5 +x_11_3 +x_11_7 +x_12_4 +x_12_6 <= 8;
+x_8_5 +x_8_7 +x_9_4 +x_9_8 -6 x_10_6 +x_11_4 +x_11_8 +x_12_5 +x_12_7 >= 0;
+x_8_5 +x_8_7 +x_9_4 +x_9_8 +2 x_10_6 +x_11_4 +x_11_8 +x_12_5 +x_12_7 <= 8;
+x_8_6 +x_8_8 +x_9_5 +x_9_9 -6 x_10_7 +x_11_5 +x_11_9 +x_12_6 +x_12_8 >= 0;
+x_8_6 +x_8_8 +x_9_5 +x_9_9 +2 x_10_7 +x_11_5 +x_11_9 +x_12_6 +x_12_8 <= 8;
+x_8_7 +x_8_9 +x_9_6 +x_9_10 -6 x_10_8 +x_11_6 +x_11_10 +x_12_7 +x_12_9 >= 0;
+x_8_7 +x_8_9 +x_9_6 +x_9_10 +2 x_10_8 +x_11_6 +x_11_10 +x_12_7 +x_12_9 <= 8;
+x_8_8 +x_8_10 +x_9_7 +x_9_11 -6 x_10_9 +x_11_7 +x_11_11 +x_12_8 +x_12_10 >= 0;
+x_8_8 +x_8_10 +x_9_7 +x_9_11 +2 x_10_9 +x_11_7 +x_11_11 +x_12_8 +x_12_10 <= 8;
+x_8_9 +x_8_11 +x_9_8 +x_9_12 -6 x_10_10 +x_11_8 +x_11_12 +x_12_9 +x_12_11 >= 0;
+x_8_9 +x_8_11 +x_9_8 +x_9_12 +2 x_10_10 +x_11_8 +x_11_12 +x_12_9 +x_12_11 <= 8;
+x_8_10 +x_8_12 +x_9_9 +x_9_13 -6 x_10_11 +x_11_9 +x_11_13 +x_12_10 +x_12_12 >= 0;
+x_8_10 +x_8_12 +x_9_9 +x_9_13 +2 x_10_11 +x_11_9 +x_11_13 +x_12_10 +x_12_12 <= 8;
+x_8_11 +x_8_13 +x_9_10 +x_9_14 -6 x_10_12 +x_11_10 +x_11_14 +x_12_11 +x_12_13 >= 0;
+x_8_11 +x_8_13 +x_9_10 +x_9_14 +2 x_10_12 +x_11_10 +x_11_14 +x_12_11 +x_12_13 <= 8;
+x_8_12 +x_8_14 +x_9_11 +x_9_15 -6 x_10_13 +x_11_11 +x_11_15 +x_12_12 +x_12_14 >= 0;
+x_8_12 +x_8_14 +x_9_11 +x_9_15 +2 x_10_13 +x_11_11 +x_11_15 +x_12_12 +x_12_14 <= 8;
+x_8_13 +x_8_15 +x_9_12 -6 x_10_14 +x_11_12 +x_12_13 +x_12_15 >= 0;
+x_8_13 +x_8_15 +x_9_12 +x_11_12 +x_12_13 +x_12_15 <= 6;
+x_8_14 +x_9_13 -6 x_10_15 +x_11_13 +x_12_14 >= 0;
+x_8_14 +x_9_13 -2 x_10_15 +x_11_13 +x_12_14 <= 4;
+x_9_2 +x_10_3 -6 x_11_1 +x_12_3 +x_13_2 >= 0;
+x_9_2 +x_10_3 -2 x_11_1 +x_12_3 +x_13_2 <= 4;
+x_9_1 +x_9_3 +x_10_4 -6 x_11_2 +x_12_4 +x_13_1 +x_13_3 >= 0;
+x_9_1 +x_9_3 +x_10_4 +x_12_4 +x_13_1 +x_13_3 <= 6;
+x_9_2 +x_9_4 +x_10_1 +x_10_5 -6 x_11_3 +x_12_1 +x_12_5 +x_13_2 +x_13_4 >= 0;
+x_9_2 +x_9_4 +x_10_1 +x_10_5 +2 x_11_3 +x_12_1 +x_12_5 +x_13_2 +x_13_4 <= 8;
+x_9_3 +x_9_5 +x_10_2 +x_10_6 -6 x_11_4 +x_12_2 +x_12_6 +x_13_3 +x_13_5 >= 0;
+x_9_3 +x_9_5 +x_10_2 +x_10_6 +2 x_11_4 +x_12_2 +x_12_6 +x_13_3 +x_13_5 <= 8;
+x_9_4 +x_9_6 +x_10_3 +x_10_7 -6 x_11_5 +x_12_3 +x_12_7 +x_13_4 +x_13_6 >= 0;
+x_9_4 +x_9_6 +x_10_3 +x_10_7 +2 x_11_5 +x_12_3 +x_12_7 +x_13_4 +x_13_6 <= 8;
+x_9_5 +x_9_7 +x_10_4 +x_10_8 -6 x_11_6 +x_12_4 +x_12_8 +x_13_5 +x_13_7 >= 0;
+x_9_5 +x_9_7 +x_10_4 +x_10_8 +2 x_11_6 +x_12_4 +x_12_8 +x_13_5 +x_13_7 <= 8;
+x_9_6 +x_9_8 +x_10_5 +x_10_9 -6 x_11_7 +x_12_5 +x_12_9 +x_13_6 +x_13_8 >= 0;
+x_9_6 +x_9_8 +x_10_5 +x_10_9 +2 x_11_7 +x_12_5 +x_12_9 +x_13_6 +x_13_8 <= 8;
+x_9_7 +x_9_9 +x_10_6 +x_10_10 -6 x_11_8 +x_12_6 +x_12_10 +x_13_7 +x_13_9 >= 0;
+x_9_7 +x_9_9 +x_10_6 +x_10_10 +2 x_11_8 +x_12_6 +x_12_10 +x_13_7 +x_13_9 <= 8;
+x_9_8 +x_9_10 +x_10_7 +x_10_11 -6 x_11_9 +x_12_7 +x_12_11 +x_13_8 +x_13_10 >= 0;
+x_9_8 +x_9_10 +x_10_7 +x_10_11 +2 x_11_9 +x_12_7 +x_12_11 +x_13_8 +x_13_10 <= 8;
+x_9_9 +x_9_11 +x_10_8 +x_10_12 -6 x_11_10 +x_12_8 +x_12_12 +x_13_9 +x_13_11 >= 0;
+x_9_9 +x_9_11 +x_10_8 +x_10_12 +2 x_11_10 +x_12_8 +x_12_12 +x_13_9 +x_13_11 <= 8;
+x_9_10 +x_9_12 +x_10_9 +x_10_13 -6 x_11_11 +x_12_9 +x_12_13 +x_13_10 +x_13_12 >= 0;
+x_9_10 +x_9_12 +x_10_9 +x_10_13 +2 x_11_11 +x_12_9 +x_12_13 +x_13_10 +x_13_12 <= 8;
+x_9_11 +x_9_13 +x_10_10 +x_10_14 -6 x_11_12 +x_12_10 +x_12_14 +x_13_11 +x_13_13 >= 0;
+x_9_11 +x_9_13 +x_10_10 +x_10_14 +2 x_11_12 +x_12_10 +x_12_14 +x_13_11 +x_13_13 <= 8;
+x_9_12 +x_9_14 +x_10_11 +x_10_15 -6 x_11_13 +x_12_11 +x_12_15 +x_13_12 +x_13_14 >= 0;
+x_9_12 +x_9_14 +x_10_11 +x_10_15 +2 x_11_13 +x_12_11 +x_12_15 +x_13_12 +x_13_14 <= 8;
+x_9_13 +x_9_15 +x_10_12 -6 x_11_14 +x_12_12 +x_13_13 +x_13_15 >= 0;
+x_9_13 +x_9_15 +x_10_12 +x_12_12 +x_13_13 +x_13_15 <= 6;
+x_9_14 +x_10_13 -6 x_11_15 +x_12_13 +x_13_14 >= 0;
+x_9_14 +x_10_13 -2 x_11_15 +x_12_13 +x_13_14 <= 4;
+x_10_2 +x_11_3 -6 x_12_1 +x_13_3 +x_14_2 >= 0;
+x_10_2 +x_11_3 -2 x_12_1 +x_13_3 +x_14_2 <= 4;
+x_10_1 +x_10_3 +x_11_4 -6 x_12_2 +x_13_4 +x_14_1 +x_14_3 >= 0;
+x_10_1 +x_10_3 +x_11_4 +x_13_4 +x_14_1 +x_14_3 <= 6;
+x_10_2 +x_10_4 +x_11_1 +x_11_5 -6 x_12_3 +x_13_1 +x_13_5 +x_14_2 +x_14_4 >= 0;
+x_10_2 +x_10_4 +x_11_1 +x_11_5 +2 x_12_3 +x_13_1 +x_13_5 +x_14_2 +x_14_4 <= 8;
+x_10_3 +x_10_5 +x_11_2 +x_11_6 -6 x_12_4 +x_13_2 +x_13_6 +x_14_3 +x_14_5 >= 0;
+x_10_3 +x_10_5 +x_11_2 +x_11_6 +2 x_12_4 +x_13_2 +x_13_6 +x_14_3 +x_14_5 <= 8;
+x_10_4 +x_10_6 +x_11_3 +x_11_7 -6 x_12_5 +x_13_3 +x_13_7 +x_14_4 +x_14_6 >= 0;
+x_10_4 +x_10_6 +x_11_3 +x_11_7 +2 x_12_5 +x_13_3 +x_13_7 +x_14_4 +x_14_6 <= 8;
+x_10_5 +x_10_7 +x_11_4 +x_11_8 -6 x_12_6 +x_13_4 +x_13_8 +x_14_5 +x_14_7 >= 0;
+x_10_5 +x_10_7 +x_11_4 +x_11_8 +2 x_12_6 +x_13_4 +x_13_8 +x_14_5 +x_14_7 <= 8;
+x_10_6 +x_10_8 +x_11_5 +x_11_9 -6 x_12_7 +x_13_5 +x_13_9 +x_14_6 +x_14_8 >= 0;
+x_10_6 +x_10_8 +x_11_5 +x_11_9 +2 x_12_7 +x_13_5 +x_13_9 +x_14_6 +x_14_8 <= 8;
+x_10_7 +x_10_9 +x_11_6 +x_11_10 -6 x_12_8 +x_13_6 +x_13_10 +x_14_7 +x_14_9 >= 0;
+x_10_7 +x_10_9 +x_11_6 +x_11_10 +2 x_12_8 +x_13_6 +x_13_10 +x_14_7 +x_14_9 <= 8;
+x_10_8 +x_10_10 +x_11_7 +x_11_11 -6 x_12_9 +x_13_7 +x_13_11 +x_14_8 +x_14_10 >= 0;
+x_10_8 +x_10_10 +x_11_7 +x_11_11 +2 x_12_9 +x_13_7 +x_13_11 +x_14_8 +x_14_10 <= 8;
+x_10_9 +x_10_11 +x_11_8 +x_11_12 -6 x_12_10 +x_13_8 +x_13_12 +x_14_9 +x_14_11 >= 0;
+x_10_9 +x_10_11 +x_11_8 +x_11_12 +2 x_12_10 +x_13_8 +x_13_12 +x_14_9 +x_14_11 <= 8;
+x_10_10 +x_10_12 +x_11_9 +x_11_13 -6 x_12_11 +x_13_9 +x_13_13 +x_14_10 +x_14_12 >= 0;
+x_10_10 +x_10_12 +x_11_9 +x_11_13 +2 x_12_11 +x_13_9 +x_13_13 +x_14_10 +x_14_12 <= 8;
+x_10_11 +x_10_13 +x_11_10 +x_11_14 -6 x_12_12 +x_13_10 +x_13_14 +x_14_11 +x_14_13 >= 0;
+x_10_11 +x_10_13 +x_11_10 +x_11_14 +2 x_12_12 +x_13_10 +x_13_14 +x_14_11 +x_14_13 <= 8;
+x_10_12 +x_10_14 +x_11_11 +x_11_15 -6 x_12_13 +x_13_11 +x_13_15 +x_14_12 +x_14_14 >= 0;
+x_10_12 +x_10_14 +x_11_11 +x_11_15 +2 x_12_13 +x_13_11 +x_13_15 +x_14_12 +x_14_14 <= 8;
+x_10_13 +x_10_15 +x_11_12 -6 x_12_14 +x_13_12 +x_14_13 +x_14_15 >= 0;
+x_10_13 +x_10_15 +x_11_12 +x_13_12 +x_14_13 +x_14_15 <= 6;
+x_10_14 +x_11_13 -6 x_12_15 +x_13_13 +x_14_14 >= 0;
+x_10_14 +x_11_13 -2 x_12_15 +x_13_13 +x_14_14 <= 4;
+x_11_2 +x_12_3 -6 x_13_1 +x_14_3 +x_15_2 >= 0;
+x_11_2 +x_12_3 -2 x_13_1 +x_14_3 +x_15_2 <= 4;
+x_11_1 +x_11_3 +x_12_4 -6 x_13_2 +x_14_4 +x_15_1 +x_15_3 >= 0;
+x_11_1 +x_11_3 +x_12_4 +x_14_4 +x_15_1 +x_15_3 <= 6;
+x_11_2 +x_11_4 +x_12_1 +x_12_5 -6 x_13_3 +x_14_1 +x_14_5 +x_15_2 +x_15_4 >= 0;
+x_11_2 +x_11_4 +x_12_1 +x_12_5 +2 x_13_3 +x_14_1 +x_14_5 +x_15_2 +x_15_4 <= 8;
+x_11_3 +x_11_5 +x_12_2 +x_12_6 -6 x_13_4 +x_14_2 +x_14_6 +x_15_3 +x_15_5 >= 0;
+x_11_3 +x_11_5 +x_12_2 +x_12_6 +2 x_13_4 +x_14_2 +x_14_6 +x_15_3 +x_15_5 <= 8;
+x_11_4 +x_11_6 +x_12_3 +x_12_7 -6 x_13_5 +x_14_3 +x_14_7 +x_15_4 +x_15_6 >= 0;
+x_11_4 +x_11_6 +x_12_3 +x_12_7 +2 x_13_5 +x_14_3 +x_14_7 +x_15_4 +x_15_6 <= 8;
+x_11_5 +x_11_7 +x_12_4 +x_12_8 -6 x_13_6 +x_14_4 +x_14_8 +x_15_5 +x_15_7 >= 0;
+x_11_5 +x_11_7 +x_12_4 +x_12_8 +2 x_13_6 +x_14_4 +x_14_8 +x_15_5 +x_15_7 <= 8;
+x_11_6 +x_11_8 +x_12_5 +x_12_9 -6 x_13_7 +x_14_5 +x_14_9 +x_15_6 +x_15_8 >= 0;
+x_11_6 +x_11_8 +x_12_5 +x_12_9 +2 x_13_7 +x_14_5 +x_14_9 +x_15_6 +x_15_8 <= 8;
+x_11_7 +x_11_9 +x_12_6 +x_12_10 -6 x_13_8 +x_14_6 +x_14_10 +x_15_7 +x_15_9 >= 0;
+x_11_7 +x_11_9 +x_12_6 +x_12_10 +2 x_13_8 +x_14_6 +x_14_10 +x_15_7 +x_15_9 <= 8;
+x_11_8 +x_11_10 +x_12_7 +x_12_11 -6 x_13_9 +x_14_7 +x_14_11 +x_15_8 +x_15_10 >= 0;
+x_11_8 +x_11_10 +x_12_7 +x_12_11 +2 x_13_9 +x_14_7 +x_14_11 +x_15_8 +x_15_10 <= 8;
+x_11_9 +x_11_11 +x_12_8 +x_12_12 -6 x_13_10 +x_14_8 +x_14_12 +x_15_9 +x_15_11 >= 0;
+x_11_9 +x_11_11 +x_12_8 +x_12_12 +2 x_13_10 +x_14_8 +x_14_12 +x_15_9 +x_15_11 <= 8;
+x_11_10 +x_11_12 +x_12_9 +x_12_13 -6 x_13_11 +x_14_9 +x_14_13 +x_15_10 +x_15_12 >= 0;
+x_11_10 +x_11_12 +x_12_9 +x_12_13 +2 x_13_11 +x_14_9 +x_14_13 +x_15_10 +x_15_12 <= 8;
+x_11_11 +x_11_13 +x_12_10 +x_12_14 -6 x_13_12 +x_14_10 +x_14_14 +x_15_11 +x_15_13 >= 0;
+x_11_11 +x_11_13 +x_12_10 +x_12_14 +2 x_13_12 +x_14_10 +x_14_14 +x_15_11 +x_15_13 <= 8;
+x_11_12 +x_11_14 +x_12_11 +x_12_15 -6 x_13_13 +x_14_11 +x_14_15 +x_15_12 +x_15_14 >= 0;
+x_11_12 +x_11_14 +x_12_11 +x_12_15 +2 x_13_13 +x_14_11 +x_14_15 +x_15_12 +x_15_14 <= 8;
+x_11_13 +x_11_15 +x_12_12 -6 x_13_14 +x_14_12 +x_15_13 +x_15_15 >= 0;
+x_11_13 +x_11_15 +x_12_12 +x_14_12 +x_15_13 +x_15_15 <= 6;
+x_11_14 +x_12_13 -6 x_13_15 +x_14_13 +x_15_14 >= 0;
+x_11_14 +x_12_13 -2 x_13_15 +x_14_13 +x_15_14 <= 4;
+x_12_2 +x_13_3 -6 x_14_1 +x_15_3 >= 0;
+x_12_2 +x_13_3 -3 x_14_1 +x_15_3 <= 3;
+x_12_1 +x_12_3 +x_13_4 -6 x_14_2 +x_15_4 >= 0;
+x_12_1 +x_12_3 +x_13_4 -2 x_14_2 +x_15_4 <= 4;
+x_12_2 +x_12_4 +x_13_1 +x_13_5 -6 x_14_3 +x_15_1 +x_15_5 >= 0;
+x_12_2 +x_12_4 +x_13_1 +x_13_5 +x_15_1 +x_15_5 <= 6;
+x_12_3 +x_12_5 +x_13_2 +x_13_6 -6 x_14_4 +x_15_2 +x_15_6 >= 0;
+x_12_3 +x_12_5 +x_13_2 +x_13_6 +x_15_2 +x_15_6 <= 6;
+x_12_4 +x_12_6 +x_13_3 +x_13_7 -6 x_14_5 +x_15_3 +x_15_7 >= 0;
+x_12_4 +x_12_6 +x_13_3 +x_13_7 +x_15_3 +x_15_7 <= 6;
+x_12_5 +x_12_7 +x_13_4 +x_13_8 -6 x_14_6 +x_15_4 +x_15_8 >= 0;
+x_12_5 +x_12_7 +x_13_4 +x_13_8 +x_15_4 +x_15_8 <= 6;
+x_12_6 +x_12_8 +x_13_5 +x_13_9 -6 x_14_7 +x_15_5 +x_15_9 >= 0;
+x_12_6 +x_12_8 +x_13_5 +x_13_9 +x_15_5 +x_15_9 <= 6;
+x_12_7 +x_12_9 +x_13_6 +x_13_10 -6 x_14_8 +x_15_6 +x_15_10 >= 0;
+x_12_7 +x_12_9 +x_13_6 +x_13_10 +x_15_6 +x_15_10 <= 6;
+x_12_8 +x_12_10 +x_13_7 +x_13_11 -6 x_14_9 +x_15_7 +x_15_11 >= 0;
+x_12_8 +x_12_10 +x_13_7 +x_13_11 +x_15_7 +x_15_11 <= 6;
+x_12_9 +x_12_11 +x_13_8 +x_13_12 -6 x_14_10 +x_15_8 +x_15_12 >= 0;
+x_12_9 +x_12_11 +x_13_8 +x_13_12 +x_15_8 +x_15_12 <= 6;
+x_12_10 +x_12_12 +x_13_9 +x_13_13 -6 x_14_11 +x_15_9 +x_15_13 >= 0;
+x_12_10 +x_12_12 +x_13_9 +x_13_13 +x_15_9 +x_15_13 <= 6;
+x_12_11 +x_12_13 +x_13_10 +x_13_14 -6 x_14_12 +x_15_10 +x_15_14 >= 0;
+x_12_11 +x_12_13 +x_13_10 +x_13_14 +x_15_10 +x_15_14 <= 6;
+x_12_12 +x_12_14 +x_13_11 +x_13_15 -6 x_14_13 +x_15_11 +x_15_15 >= 0;
+x_12_12 +x_12_14 +x_13_11 +x_13_15 +x_15_11 +x_15_15 <= 6;
+x_12_13 +x_12_15 +x_13_12 -6 x_14_14 +x_15_12 >= 0;
+x_12_13 +x_12_15 +x_13_12 -2 x_14_14 +x_15_12 <= 4;
+x_12_14 +x_13_13 -6 x_14_15 +x_15_13 >= 0;
+x_12_14 +x_13_13 -3 x_14_15 +x_15_13 <= 3;
+x_13_2 +x_14_3 -6 x_15_1 >= 0;
+x_13_2 +x_14_3 -4 x_15_1 <= 2;
+x_13_1 +x_13_3 +x_14_4 -6 x_15_2 >= 0;
+x_13_1 +x_13_3 +x_14_4 -3 x_15_2 <= 3;
+x_13_2 +x_13_4 +x_14_1 +x_14_5 -6 x_15_3 >= 0;
+x_13_2 +x_13_4 +x_14_1 +x_14_5 -2 x_15_3 <= 4;
+x_13_3 +x_13_5 +x_14_2 +x_14_6 -6 x_15_4 >= 0;
+x_13_3 +x_13_5 +x_14_2 +x_14_6 -2 x_15_4 <= 4;
+x_13_4 +x_13_6 +x_14_3 +x_14_7 -6 x_15_5 >= 0;
+x_13_4 +x_13_6 +x_14_3 +x_14_7 -2 x_15_5 <= 4;
+x_13_5 +x_13_7 +x_14_4 +x_14_8 -6 x_15_6 >= 0;
+x_13_5 +x_13_7 +x_14_4 +x_14_8 -2 x_15_6 <= 4;
+x_13_6 +x_13_8 +x_14_5 +x_14_9 -6 x_15_7 >= 0;
+x_13_6 +x_13_8 +x_14_5 +x_14_9 -2 x_15_7 <= 4;
+x_13_7 +x_13_9 +x_14_6 +x_14_10 -6 x_15_8 >= 0;
+x_13_7 +x_13_9 +x_14_6 +x_14_10 -2 x_15_8 <= 4;
+x_13_8 +x_13_10 +x_14_7 +x_14_11 -6 x_15_9 >= 0;
+x_13_8 +x_13_10 +x_14_7 +x_14_11 -2 x_15_9 <= 4;
+x_13_9 +x_13_11 +x_14_8 +x_14_12 -6 x_15_10 >= 0;
+x_13_9 +x_13_11 +x_14_8 +x_14_12 -2 x_15_10 <= 4;
+x_13_10 +x_13_12 +x_14_9 +x_14_13 -6 x_15_11 >= 0;
+x_13_10 +x_13_12 +x_14_9 +x_14_13 -2 x_15_11 <= 4;
+x_13_11 +x_13_13 +x_14_10 +x_14_14 -6 x_15_12 >= 0;
+x_13_11 +x_13_13 +x_14_10 +x_14_14 -2 x_15_12 <= 4;
+x_13_12 +x_13_14 +x_14_11 +x_14_15 -6 x_15_13 >= 0;
+x_13_12 +x_13_14 +x_14_11 +x_14_15 -2 x_15_13 <= 4;
+x_13_13 +x_13_15 +x_14_12 -6 x_15_14 >= 0;
+x_13_13 +x_13_15 +x_14_12 -3 x_15_14 <= 3;
+x_13_14 +x_14_13 -6 x_15_15 >= 0;
+x_13_14 +x_14_13 -4 x_15_15 <= 2;
-x_1_1 -x_1_2 -x_1_3 -x_1_4 -x_1_5 -x_1_6 -x_1_7 -x_1_8 -x_1_9 -x_1_10 -x_1_11 -x_1_12 -x_1_13 -x_1_14
 -x_1_15 -x_2_1 -x_2_2 -x_2_3 -x_2_4 -x_2_5 -x_2_6 -x_2_7 -x_2_8 -x_2_9 -x_2_10 -x_2_11 -x_2_12 -x_2_13
 -x_2_14 -x_2_15 -x_3_1 -x_3_2 -x_3_3 -x_3_4 -x_3_5 -x_3_6 -x_3_7 -x_3_8 -x_3_9 -x_3_10 -x_3_11 -x_3_12
 -x_3_13 -x_3_14 -x_3_15 -x_4_1 -x_4_2 -x_4_3 -x_4_4 -x_4_5 -x_4_6 -x_4_7 -x_4_8 -x_4_9 -x_4_10 -x_4_11
 -x_4_12 -x_4_13 -x_4_14 -x_4_15 -x_5_1 -x_5_2 -x_5_3 -x_5_4 -x_5_5 -x_5_6 -x_5_7 -x_5_8 -x_5_9 -x_5_10
 -x_5_11 -x_5_12 -x_5_13 -x_5_14 -x_5_15 -x_6_1 -x_6_2 -x_6_3 -x_6_4 -x_6_5 -x_6_6 -x_6_7 -x_6_8 -x_6_9
 -x_6_10 -x_6_11 -x_6_12 -x_6_13 -x_6_14 -x_6_15 -x_7_1 -x_7_2 -x_7_3 -x_7_4 -x_7_5 -x_7_6 -x_7_7 -x_7_8
 -x_7_9 -x_7_10 -x_7_11 -x_7_12 -x_7_13 -x_7_14 -x_7_15 -x_8_1 -x_8_2 -x_8_3 -x_8_4 -x_8_5 -x_8_6 -x_8_7
 -x_8_8 -x_8_9 -x_8_10 -x_8_11 -x_8_12 -x_8_13 -x_8_14 -x_8_15 +x_9_1 +x_9_2 +x_9_3 +x_9_4 +x_9_5 +x_9_6
 +x_9_7 +x_9_8 +x_9_9 +x_9_10 +x_9_11 +x_9_12 +x_9_13 +x_9_14 +x_9_15 +x_10_1 +x_10_2 +x_10_3 +x_10_4
 +x_10_5 +x_10_6 +x_10_7 +x_10_8 +x_10_9 +x_10_10 +x_10_11 +x_10_12 +x_10_13 +x_10_14 +x_10_15 +x_11_1
 +x_11_2 +x_11_3 +x_11_4 +x_11_5 +x_11_6 +x_11_7 +x_11_8 +x_11_9 +x_11_10 +x_11_11 +x_11_12 +x_11_13
 +x_11_14 +x_11_15 +x_12_1 +x_12_2 +x_12_3 +x_12_4 +x_12_5 +x_12_6 +x_12_7 +x_12_8 +x_12_9 +x_12_10 +x_12_11
 +x_12_12 +x_12_13 +x_12_14 +x_12_15 +x_13_1 +x_13_2 +x_13_3 +x_13_4 +x_13_5 +x_13_6 +x_13_7 +x_13_8
 +x_13_9 +x_13_10 +x_13_11 +x_13_12 +x_13_13 +x_13_14 +x_13_15 +x_14_1 +x_14_2 +x_14_3 +x_14_4 +x_14_5
 +x_14_6 +x_14_7 +x_14_8 +x_14_9 +x_14_10 +x_14_11 +x_14_12 +x_14_13 +x_14_14 +x_14_15 +x_15_1 +x_15_2
 +x_15_3 +x_15_4 +x_15_5 +x_15_6 +x_15_7 +x_15_8 +x_15_9 +x_15_10 +x_15_11 +x_15_12 +x_15_13 +x_15_14
 +x_15_15 <= 0;

/* Variable bounds */
x_1_1 <= 1;
x_1_2 <= 1;
x_1_3 <= 1;
x_1_4 <= 1;
x_1_5 <= 1;
x_1_6 <= 1;
x_1_7 <= 1;
x_1_8 <= 1;
x_1_9 <= 1;
x_1_10 <= 1;
x_1_11 <= 1;
x_1_12 <= 1;
x_1_13 <= 1;
x_1_14 <= 1;
x_1_15 <= 1;
x_2_1 <= 1;
x_2_2 <= 1;
x_2_3 <= 1;
x_2_4 <= 1;
x_2_5 <= 1;
x_2_6 <= 1;
x_2_7 <= 1;
x_2_8 <= 1;
x_2_9 <= 1;
x_2_10 <= 1;
x_2_11 <= 1;
x_2_12 <= 1;
x_2_13 <= 1;
x_2_14 <= 1;
x_2_15 <= 1;
x_3_1 <= 1;
x_3_2 <= 1;
x_3_3 <= 1;
x_3_4 <= 1;
x_3_5 <= 1;
x_3_6 <= 1;
x_3_7 <= 1;
x_3_8 <= 1;
x_3_9 <= 1;
x_3_10 <= 1;
x_3_11 <= 1;
x_3_12 <= 1;
x_3_13 <= 1;
x_3_14 <= 1;
x_3_15 <= 1;
x_4_1 <= 1;
x_4_2 <= 1;
x_4_3 <= 1;
x_4_4 <= 1;
x_4_5 <= 1;
x_4_6 <= 1;
x_4_7 <= 1;
x_4_8 <= 1;
x_4_9 <= 1;
x_4_10 <= 1;
x_4_11 <= 1;
x_4_12 <= 1;
x_4_13 <= 1;
x_4_14 <= 1;
x_4_15 <= 1;
x_5_1 <= 1;
x_5_2 <= 1;
x_5_3 <= 1;
x_5_4 <= 1;
x_5_5 <= 1;
x_5_6 <= 1;
x_5_7 <= 1;
x_5_8 <= 1;
x_5_9 <= 1;
x_5_10 <= 1;
x_5_11 <= 1;
x_5_12 <= 1;
x_5_13 <= 1;
x_5_14 <= 1;
x_5_15 <= 1;
x_6_1 <= 1;
x_6_2 <= 1;
x_6_3 <= 1;
x_6_4 <= 1;
x_6_5 <= 1;
x_6_6 <= 1;
x_6_7 <= 1;
x_6_8 <= 1;
x_6_9 <= 1;
x_6_10 <= 1;
x_6_11 <= 1;
x_6_12 <= 1;
x_6_13 <= 1;
x_6_14 <= 1;
x_6_15 <= 1;
x_7_1 <= 1;
x_7_2 <= 1;
x_7_3 <= 1;
x_7_4 <= 1;
x_7_5 <= 1;
x_7_6 <= 1;
x_7_7 <= 1;
x_7_8 <= 1;
x_7_9 <= 1;
x_7_10 <= 1;
x_7_11 <= 1;
x_7_12 <= 1;
x_7_13 <= 1;
x_7_14 <= 1;
x_7_15 <= 1;
x_8_1 <= 1;
x_8_2 <= 1;
x_8_3 <= 1;
x_8_4 <= 1;
x_8_5 <= 1;
x_8_6 <= 1;
x_8_7 <= 1;
x_8_8 <= 1;
x_8_9 <= 1;
x_8_10 <= 1;
x_8_11 <= 1;
x_8_12 <= 1;
x_8_13 <= 1;
x_8_14 <= 1;
x_8_15 <= 1;
x_9_1 <= 1;
x_9_2 <= 1;
x_9_3 <= 1;
x_9_4 <= 1;
x_9_5 <= 1;
x_9_6 <= 1;
x_9_7 <= 1;
x_9_8 <= 1;
x_9_9 <= 1;
x_9_10 <= 1;
x_9_11 <= 1;
x_9_12 <= 1;
x_9_13 <= 1;
x_9_14 <= 1;
x_9_15 <= 1;
x_10_1 <= 1;
x_10_2 <= 1;
x_10_3 <= 1;
x_10_4 <= 1;
x_10_5 <= 1;
x_10_6 <= 1;
x_10_7 <= 1;
x_10_8 <= 1;
x_10_9 <= 1;
x_10_10 <= 1;
x_10_11 <= 1;
x_10_12 <= 1;
x_10_13 <= 1;
x_10_14 <= 1;
x_10_15 <= 1;
x_11_1 <= 1;
x_11_2 <= 1;
x_11_3 <= 1;
x_11_4 <= 1;
x_11_5 <= 1;
x_11_6 <= 1;
x_11_7 <= 1;
x_11_8 <= 1;
x_11_9 <= 1;
x_11_10 <= 1;
x_11_11 <= 1;
x_11_12 <= 1;
x_11_13 <= 1;
x_11_14 <= 1;
x_11_15 <= 1;
x_12_1 <= 1;
x_12_2 <= 1;
x_12_3 <= 1;
x_12_4 <= 1;
x_12_5 <= 1;
x_12_6 <= 1;
x_12_7 <= 1;
x_12_8 <= 1;
x_12_9 <= 1;
x_12_10 <= 1;
x_12_11 <= 1;
x_12_12 <= 1;
x_12_13 <= 1;
x_12_14 <= 1;
x_12_15 <= 1;
x_13_1 <= 1;
x_13_2 <= 1;
x_13_3 <= 1;
x_13_4 <= 1;
x_13_5 <= 1;
x_13_6 <= 1;
x_13_7 <= 1;
x_13_8 <= 1;
x_13_9 <= 1;
x_13_10 <= 1;
x_13_11 <= 1;
x_13_12 <= 1;
x_13_13 <= 1;
x_13_14 <= 1;
x_13_15 <= 1;
x_14_1 <= 1;
x_14_2 <= 1;
x_14_3 <= 1;
x_14_4 <= 1;
x_14_5 <= 1;
x_14_6 <= 1;
x_14_7 <= 1;
x_14_8 <= 1;
x_14_9 <= 1;
x_14_10 <= 1;
x_14_11 <= 1;
x_14_12 <= 1;
x_14_13 <= 1;
x_14_14 <= 1;
x_14_15 <= 1;
x_15_1 <= 1;
x_15_2 <= 1;
x_15_3 <= 1;
x_15_4 <= 1;
x_15_5 <= 1;
x_15_6 <= 1;
x_15_7 <= 1;
x_15_8 <= 1;
x_15_9 <= 1;
x_15_10 <= 1;
x_15_11 <= 1;
x_15_12 <= 1;
x_15_13 <= 1;
x_15_14 <= 1;
x_15_15 <= 1;

/* Integer definitions */
int x_1_1,x_1_2,x_1_3,x_1_4,x_1_5,x_1_6,x_1_7,x_1_8,x_1_9,x_1_10,x_1_11,x_1_12,x_1_13,x_1_14,x_1_15,x_2_1,x_2_2,x_2_3,x_2_4,x_2_5,x_2_6,x_2_7,x_2_8,x_2_9,x_2_10,x_2_11,x_2_12,x_2_13,x_2_14,x_2_15,x_3_1,x_3_2,x_3_3,x_3_4,x_3_5,x_3_6,x_3_7,x_3_8,x_3_9,x_3_10,x_3_11,x_3_12,x_3_13,x_3_14,x_3_15,x_4_1,x_4_2,x_4_3,x_4_4,x_4_5,x_4_6,x_4_7,x_4_8,x_4_9,x_4_10,x_4_11,x_4_12,x_4_13,x_4_14,x_4_15,x_5_1,x_5_2,x_5_3,x_5_4,x_5_5,x_5_6,x_5_7,x_5_8,x_5_9,x_5_10,x_5_11,x_5_12,x_5_13,x_5_14,x_5_15,x_6_1,x_6_2,x_6_3,x_6_4,x_6_5,x_6_6,x_6_7,x_6_8,x_6_9,x_6_10,x_6_11,x_6_12,x_6_13,x_6_14,x_6_15,x_7_1,x_7_2,x_7_3,x_7_4,x_7_5,x_7_6,x_7_7,x_7_8,x_7_9,x_7_10,x_7_11,x_7_12,x_7_13,x_7_14,x_7_15,x_8_1,x_8_2,x_8_3,x_8_4,x_8_5,x_8_6,x_8_7,x_8_8,x_8_9,x_8_10,x_8_11,x_8_12,x_8_13,x_8_14,x_8_15,x_9_1,x_9_2,x_9_3,x_9_4,x_9_5,x_9_6,x_9_7,x_9_8,x_9_9,x_9_10,x_9_11,x_9_12,x_9_13,x_9_14,x_9_15,x_10_1,x_10_2,x_10_3,x_10_4,x_10_5,x_10_6,x_10_7,x_10_8,x_10_9,x_10_10,x_10_11,x_10_12,x_10_13,x_10_14,x_10_15,x_11_1,x_11_2,x_11_3,x_11_4,x_11_5,x_11_6,x_11_7,x_11_8,x_11_9,x_11_10,x_11_11,x_11_12,x_11_13,x_11_14,x_11_15,x_12_1,x_12_2,x_12_3,x_12_4,x_12_5,x_12_6,x_12_7,x_12_8,x_12_9,x_12_10,x_12_11,x_12_12,x_12_13,x_12_14,x_12_15,x_13_1,x_13_2,x_13_3,x_13_4,x_13_5,x_13_6,x_13_7,x_13_8,x_13_9,x_13_10,x_13_11,x_13_12,x_13_13,x_13_14,x_13_15,x_14_1,x_14_2,x_14_3,x_14_4,x_14_5,x_14_6,x_14_7,x_14_8,x_14_9,x_14_10,x_14_11,x_14_12,x_14_13,x_14_14,x_14_15,x_15_1,x_15_2,x_15_3,x_15_4,x_15_5,x_15_6,x_15_7,x_15_8,x_15_9,x_15_10,x_15_11,x_15_12,x_15_13,x_15_14,x_15_15;
